\ Model mip1
\ LP format - for model browsing. Use MPS format to capture full model detail.
Maximize
  0.6265766407933777 f(x_0) + 0.6453335850118631 f(x_1)
   + 0.3341748596571827 f(x_2) + 0.7404599968649441 f(x_3)
   + 0.4375243256888481 f(x_4) + 0.3156788391044063 f(x_5)
   + 0.7224949791824558 f(x_6) + 0.5815350243136803 f(x_7)
   + 0.7340055815788855 f(x_8) + 0.2920954844806543 f(x_9)
   + 0.5675307599258139 f(x_10) + 0.7194289321755798 f(x_11)
   + 0.2513060939635975 f(x_12) + 0.6433312519474093 f(x_13)
   + 0.3486861881345243 f(x_14) + 0.381071268636424 f(x_15)
   + 0.5747311977134415 f(x_16) + 0.5223919959324772 f(x_17)
   + 0.6669759382341058 f(x_18) + 0.6726617017858669 f(x_19)
   + 0.2679244678285925 f(x_20) + 0.334033882610543 f(x_21)
   + 0.4690351522939896 f(x_22) + 0.5738048953413616 f(x_23)
   + 0.6490220028214593 f(x_24) + 0.3285136680734107 f(x_25)
   + 0.3324723261290185 f(x_26) + 0.6461534852759325 f(x_27)
   + 0.6980980836847391 f(x_28) + 0.310620817148249 f(x_29)
   + 0.7149261287826614 f(x_30) + 0.2628010202445609 f(x_31)
   + 0.4300552282292155 f(x_32) + 0.4495819689596571 f(x_33)
   + 0.440245281659799 f(x_34) + 0.629422493809275 f(x_35)
   + 0.5334500582683099 f(x_36) + 0.5622251448431823 f(x_37)
   + 0.7083888843963546 f(x_38) + 0.470526743881933 f(x_39)
   + 0.6231232190141645 f(x_40) + 0.2649428186508893 f(x_41)
   + 0.29199670161248 f(x_42) + 0.6176880306100301 f(x_43)
   + 0.4273759210925365 f(x_44) + 0.3594952383435273 f(x_45)
   + 0.6497783640435191 f(x_46) + 0.7438403369577122 f(x_47)
   + 0.5974914551212099 f(x_48) + 0.621401466112371 f(x_49)
   + 0.282500420711361 f(x_50) + 0.5953703863306224 f(x_51)
   + 0.540199759342713 f(x_52) + 0.5966175615479872 f(x_53)
   + 0.4904145251429994 f(x_54) + 0.422543383596266 f(x_55)
   + 0.6960330610964203 f(x_56) + 0.6057999089831173 f(x_57)
   + 0.3335532557825465 f(x_58) + 0.5597286608128627 f(x_59)
   + 0.7339390314557626 f(x_60) + 0.6288551313201052 f(x_61)
   + 0.4076190223603742 f(x_62) + 0.5918371549928978 f(x_63)
   + 0.3767546059268821 f(x_64) + 0.5835800746565836 f(x_65)
   + 0.2807968634183108 f(x_66) + 0.5396929972323055 f(x_67)
   + 0.4984938332643674 f(x_68) + 0.6876814289224036 f(x_69)
   + 0.60921400863796 f(x_70) + 0.4777033730785861 f(x_71)
   + 0.5889663795262998 f(x_72) + 0.555840533447818 f(x_73)
   + 0.4449463687610162 f(x_74) + 0.6018154405300562 f(x_75)
   + 0.4070744689566335 f(x_76) + 0.2554211597959124 f(x_77)
   + 0.265805046300415 f(x_78) + 0.3081136837504876 f(x_79)
   + 0.6447432116057268 f(x_80) + 0.5991060322459211 f(x_81)
   + 0.5303752198492369 f(x_82) + 0.5516817738735778 f(x_83)
   + 0.4290358891578359 f(x_84) + 0.4546294362948072 f(x_85)
   + 0.34473652038602 f(x_86) + 0.6897225502665183 f(x_87)
   + 0.3346170050022762 f(x_88) + 0.3725325489037186 f(x_89)
   + 0.7040292585602406 f(x_90) + 0.4888213910293949 f(x_91)
   + 0.3808250238651272 f(x_92) + 0.714511675476563 f(x_93)
   + 0.4061164264764024 f(x_94) + 0.6068836204439362 f(x_95)
   + 0.5581622856715114 f(x_96) + 0.6435337732422959 f(x_97)
   + 0.2634179160528279 f(x_98) + 0.46076069193373 f(x_99)
Subject To
 R0: x_0 + x_1 + x_2 + x_3 + x_4 + x_5 + x_6 + x_7 + x_8 + x_9 + x_10
   + x_11 + x_12 + x_13 + x_14 + x_15 + x_16 + x_17 + x_18 + x_19 + x_20
   + x_21 + x_22 + x_23 + x_24 + x_25 + x_26 + x_27 + x_28 + x_29 + x_30
   + x_31 + x_32 + x_33 + x_34 + x_35 + x_36 + x_37 + x_38 + x_39 + x_40
   + x_41 + x_42 + x_43 + x_44 + x_45 + x_46 + x_47 + x_48 + x_49 + x_50
   + x_51 + x_52 + x_53 + x_54 + x_55 + x_56 + x_57 + x_58 + x_59 + x_60
   + x_61 + x_62 + x_63 + x_64 + x_65 + x_66 + x_67 + x_68 + x_69 + x_70
   + x_71 + x_72 + x_73 + x_74 + x_75 + x_76 + x_77 + x_78 + x_79 + x_80
   + x_81 + x_82 + x_83 + x_84 + x_85 + x_86 + x_87 + x_88 + x_89 + x_90
   + x_91 + x_92 + x_93 + x_94 + x_95 + x_96 + x_97 + x_98 + x_99 = 5
Bounds
 x_0 <= 5
 x_1 <= 5
 x_2 <= 5
 x_3 <= 5
 x_4 <= 5
 x_5 <= 5
 x_6 <= 5
 x_7 <= 5
 x_8 <= 5
 x_9 <= 5
 x_10 <= 5
 x_11 <= 5
 x_12 <= 5
 x_13 <= 5
 x_14 <= 5
 x_15 <= 5
 x_16 <= 5
 x_17 <= 5
 x_18 <= 5
 x_19 <= 5
 x_20 <= 5
 x_21 <= 5
 x_22 <= 5
 x_23 <= 5
 x_24 <= 5
 x_25 <= 5
 x_26 <= 5
 x_27 <= 5
 x_28 <= 5
 x_29 <= 5
 x_30 <= 5
 x_31 <= 5
 x_32 <= 5
 x_33 <= 5
 x_34 <= 5
 x_35 <= 5
 x_36 <= 5
 x_37 <= 5
 x_38 <= 5
 x_39 <= 5
 x_40 <= 5
 x_41 <= 5
 x_42 <= 5
 x_43 <= 5
 x_44 <= 5
 x_45 <= 5
 x_46 <= 5
 x_47 <= 5
 x_48 <= 5
 x_49 <= 5
 x_50 <= 5
 x_51 <= 5
 x_52 <= 5
 x_53 <= 5
 x_54 <= 5
 x_55 <= 5
 x_56 <= 5
 x_57 <= 5
 x_58 <= 5
 x_59 <= 5
 x_60 <= 5
 x_61 <= 5
 x_62 <= 5
 x_63 <= 5
 x_64 <= 5
 x_65 <= 5
 x_66 <= 5
 x_67 <= 5
 x_68 <= 5
 x_69 <= 5
 x_70 <= 5
 x_71 <= 5
 x_72 <= 5
 x_73 <= 5
 x_74 <= 5
 x_75 <= 5
 x_76 <= 5
 x_77 <= 5
 x_78 <= 5
 x_79 <= 5
 x_80 <= 5
 x_81 <= 5
 x_82 <= 5
 x_83 <= 5
 x_84 <= 5
 x_85 <= 5
 x_86 <= 5
 x_87 <= 5
 x_88 <= 5
 x_89 <= 5
 x_90 <= 5
 x_91 <= 5
 x_92 <= 5
 x_93 <= 5
 x_94 <= 5
 x_95 <= 5
 x_96 <= 5
 x_97 <= 5
 x_98 <= 5
 x_99 <= 5
Generals
 x_0 x_1 x_2 x_3 x_4 x_5 x_6 x_7 x_8 x_9 x_10 x_11 x_12 x_13 x_14 x_15 x_16
 x_17 x_18 x_19 x_20 x_21 x_22 x_23 x_24 x_25 x_26 x_27 x_28 x_29 x_30 x_31
 x_32 x_33 x_34 x_35 x_36 x_37 x_38 x_39 x_40 x_41 x_42 x_43 x_44 x_45 x_46
 x_47 x_48 x_49 x_50 x_51 x_52 x_53 x_54 x_55 x_56 x_57 x_58 x_59 x_60 x_61
 x_62 x_63 x_64 x_65 x_66 x_67 x_68 x_69 x_70 x_71 x_72 x_73 x_74 x_75 x_76
 x_77 x_78 x_79 x_80 x_81 x_82 x_83 x_84 x_85 x_86 x_87 x_88 x_89 x_90 x_91
 x_92 x_93 x_94 x_95 x_96 x_97 x_98 x_99
General Constraints
 constr_x_0: f(x_0) = POW ( x_0 ^ 0.8333333333333334 )
 constr_x_1: f(x_1) = POW ( x_1 ^ 0.8333333333333334 )
 constr_x_2: f(x_2) = POW ( x_2 ^ 0.8333333333333334 )
 constr_x_3: f(x_3) = POW ( x_3 ^ 0.8333333333333334 )
 constr_x_4: f(x_4) = POW ( x_4 ^ 0.8333333333333334 )
 constr_x_5: f(x_5) = POW ( x_5 ^ 0.8333333333333334 )
 constr_x_6: f(x_6) = POW ( x_6 ^ 0.8333333333333334 )
 constr_x_7: f(x_7) = POW ( x_7 ^ 0.8333333333333334 )
 constr_x_8: f(x_8) = POW ( x_8 ^ 0.8333333333333334 )
 constr_x_9: f(x_9) = POW ( x_9 ^ 0.8333333333333334 )
 constr_x_10: f(x_10) = POW ( x_10 ^ 0.8333333333333334 )
 constr_x_11: f(x_11) = POW ( x_11 ^ 0.8333333333333334 )
 constr_x_12: f(x_12) = POW ( x_12 ^ 0.8333333333333334 )
 constr_x_13: f(x_13) = POW ( x_13 ^ 0.8333333333333334 )
 constr_x_14: f(x_14) = POW ( x_14 ^ 0.8333333333333334 )
 constr_x_15: f(x_15) = POW ( x_15 ^ 0.8333333333333334 )
 constr_x_16: f(x_16) = POW ( x_16 ^ 0.8333333333333334 )
 constr_x_17: f(x_17) = POW ( x_17 ^ 0.8333333333333334 )
 constr_x_18: f(x_18) = POW ( x_18 ^ 0.8333333333333334 )
 constr_x_19: f(x_19) = POW ( x_19 ^ 0.8333333333333334 )
 constr_x_20: f(x_20) = POW ( x_20 ^ 0.8333333333333334 )
 constr_x_21: f(x_21) = POW ( x_21 ^ 0.8333333333333334 )
 constr_x_22: f(x_22) = POW ( x_22 ^ 0.8333333333333334 )
 constr_x_23: f(x_23) = POW ( x_23 ^ 0.8333333333333334 )
 constr_x_24: f(x_24) = POW ( x_24 ^ 0.8333333333333334 )
 constr_x_25: f(x_25) = POW ( x_25 ^ 0.8333333333333334 )
 constr_x_26: f(x_26) = POW ( x_26 ^ 0.8333333333333334 )
 constr_x_27: f(x_27) = POW ( x_27 ^ 0.8333333333333334 )
 constr_x_28: f(x_28) = POW ( x_28 ^ 0.8333333333333334 )
 constr_x_29: f(x_29) = POW ( x_29 ^ 0.8333333333333334 )
 constr_x_30: f(x_30) = POW ( x_30 ^ 0.8333333333333334 )
 constr_x_31: f(x_31) = POW ( x_31 ^ 0.8333333333333334 )
 constr_x_32: f(x_32) = POW ( x_32 ^ 0.8333333333333334 )
 constr_x_33: f(x_33) = POW ( x_33 ^ 0.8333333333333334 )
 constr_x_34: f(x_34) = POW ( x_34 ^ 0.8333333333333334 )
 constr_x_35: f(x_35) = POW ( x_35 ^ 0.8333333333333334 )
 constr_x_36: f(x_36) = POW ( x_36 ^ 0.8333333333333334 )
 constr_x_37: f(x_37) = POW ( x_37 ^ 0.8333333333333334 )
 constr_x_38: f(x_38) = POW ( x_38 ^ 0.8333333333333334 )
 constr_x_39: f(x_39) = POW ( x_39 ^ 0.8333333333333334 )
 constr_x_40: f(x_40) = POW ( x_40 ^ 0.8333333333333334 )
 constr_x_41: f(x_41) = POW ( x_41 ^ 0.8333333333333334 )
 constr_x_42: f(x_42) = POW ( x_42 ^ 0.8333333333333334 )
 constr_x_43: f(x_43) = POW ( x_43 ^ 0.8333333333333334 )
 constr_x_44: f(x_44) = POW ( x_44 ^ 0.8333333333333334 )
 constr_x_45: f(x_45) = POW ( x_45 ^ 0.8333333333333334 )
 constr_x_46: f(x_46) = POW ( x_46 ^ 0.8333333333333334 )
 constr_x_47: f(x_47) = POW ( x_47 ^ 0.8333333333333334 )
 constr_x_48: f(x_48) = POW ( x_48 ^ 0.8333333333333334 )
 constr_x_49: f(x_49) = POW ( x_49 ^ 0.8333333333333334 )
 constr_x_50: f(x_50) = POW ( x_50 ^ 0.8333333333333334 )
 constr_x_51: f(x_51) = POW ( x_51 ^ 0.8333333333333334 )
 constr_x_52: f(x_52) = POW ( x_52 ^ 0.8333333333333334 )
 constr_x_53: f(x_53) = POW ( x_53 ^ 0.8333333333333334 )
 constr_x_54: f(x_54) = POW ( x_54 ^ 0.8333333333333334 )
 constr_x_55: f(x_55) = POW ( x_55 ^ 0.8333333333333334 )
 constr_x_56: f(x_56) = POW ( x_56 ^ 0.8333333333333334 )
 constr_x_57: f(x_57) = POW ( x_57 ^ 0.8333333333333334 )
 constr_x_58: f(x_58) = POW ( x_58 ^ 0.8333333333333334 )
 constr_x_59: f(x_59) = POW ( x_59 ^ 0.8333333333333334 )
 constr_x_60: f(x_60) = POW ( x_60 ^ 0.8333333333333334 )
 constr_x_61: f(x_61) = POW ( x_61 ^ 0.8333333333333334 )
 constr_x_62: f(x_62) = POW ( x_62 ^ 0.8333333333333334 )
 constr_x_63: f(x_63) = POW ( x_63 ^ 0.8333333333333334 )
 constr_x_64: f(x_64) = POW ( x_64 ^ 0.8333333333333334 )
 constr_x_65: f(x_65) = POW ( x_65 ^ 0.8333333333333334 )
 constr_x_66: f(x_66) = POW ( x_66 ^ 0.8333333333333334 )
 constr_x_67: f(x_67) = POW ( x_67 ^ 0.8333333333333334 )
 constr_x_68: f(x_68) = POW ( x_68 ^ 0.8333333333333334 )
 constr_x_69: f(x_69) = POW ( x_69 ^ 0.8333333333333334 )
 constr_x_70: f(x_70) = POW ( x_70 ^ 0.8333333333333334 )
 constr_x_71: f(x_71) = POW ( x_71 ^ 0.8333333333333334 )
 constr_x_72: f(x_72) = POW ( x_72 ^ 0.8333333333333334 )
 constr_x_73: f(x_73) = POW ( x_73 ^ 0.8333333333333334 )
 constr_x_74: f(x_74) = POW ( x_74 ^ 0.8333333333333334 )
 constr_x_75: f(x_75) = POW ( x_75 ^ 0.8333333333333334 )
 constr_x_76: f(x_76) = POW ( x_76 ^ 0.8333333333333334 )
 constr_x_77: f(x_77) = POW ( x_77 ^ 0.8333333333333334 )
 constr_x_78: f(x_78) = POW ( x_78 ^ 0.8333333333333334 )
 constr_x_79: f(x_79) = POW ( x_79 ^ 0.8333333333333334 )
 constr_x_80: f(x_80) = POW ( x_80 ^ 0.8333333333333334 )
 constr_x_81: f(x_81) = POW ( x_81 ^ 0.8333333333333334 )
 constr_x_82: f(x_82) = POW ( x_82 ^ 0.8333333333333334 )
 constr_x_83: f(x_83) = POW ( x_83 ^ 0.8333333333333334 )
 constr_x_84: f(x_84) = POW ( x_84 ^ 0.8333333333333334 )
 constr_x_85: f(x_85) = POW ( x_85 ^ 0.8333333333333334 )
 constr_x_86: f(x_86) = POW ( x_86 ^ 0.8333333333333334 )
 constr_x_87: f(x_87) = POW ( x_87 ^ 0.8333333333333334 )
 constr_x_88: f(x_88) = POW ( x_88 ^ 0.8333333333333334 )
 constr_x_89: f(x_89) = POW ( x_89 ^ 0.8333333333333334 )
 constr_x_90: f(x_90) = POW ( x_90 ^ 0.8333333333333334 )
 constr_x_91: f(x_91) = POW ( x_91 ^ 0.8333333333333334 )
 constr_x_92: f(x_92) = POW ( x_92 ^ 0.8333333333333334 )
 constr_x_93: f(x_93) = POW ( x_93 ^ 0.8333333333333334 )
 constr_x_94: f(x_94) = POW ( x_94 ^ 0.8333333333333334 )
 constr_x_95: f(x_95) = POW ( x_95 ^ 0.8333333333333334 )
 constr_x_96: f(x_96) = POW ( x_96 ^ 0.8333333333333334 )
 constr_x_97: f(x_97) = POW ( x_97 ^ 0.8333333333333334 )
 constr_x_98: f(x_98) = POW ( x_98 ^ 0.8333333333333334 )
 constr_x_99: f(x_99) = POW ( x_99 ^ 0.8333333333333334 )
End
